(set-option :print-success false)
(set-option :produce-models true)
(set-logic QF_UF)
(declare-sort x623 0)
(declare-sort x87 0)
(declare-sort x434 0)
(declare-sort x314 0)
(declare-sort x91 0)
(declare-fun x528 () x87)
(declare-fun x3 () x91)
(declare-fun x43 () Bool)
(declare-fun x72 () Bool)
(declare-fun x558 () Bool)
(declare-fun x177 () Bool)
(declare-fun x390 () x314)
(declare-fun x494 () x87)
(declare-fun x173 () x87)
(declare-fun x228 () x87)
(declare-fun x367 () Bool)
(declare-fun x270 () Bool)
(declare-fun x167 () Bool)
(declare-fun x122 () x87)
(declare-fun x521 () Bool)
(declare-fun x142 () x87)
(declare-fun x355 () Bool)
(declare-fun x335 () Bool)
(declare-fun x103 () x87)
(declare-fun x269 () Bool)
(declare-fun x145 () Bool)
(declare-fun x266 () x87)
(declare-fun x117 () Bool)
(declare-fun x547 () Bool)
(declare-fun x402 () x87)
(declare-fun x511 () Bool)
(declare-fun x101 () Bool)
(declare-fun x4 () Bool)
(declare-fun x424 () Bool)
(declare-fun x618 () Bool)
(declare-fun x115 () Bool)
(declare-fun x206 () Bool)
(declare-fun x292 () Bool)
(declare-fun x51 () Bool)
(declare-fun x485 () Bool)
(declare-fun x354 () x87)
(declare-fun x576 () x87)
(declare-fun x7 () Bool)
(declare-fun x325 () x87)
(declare-fun x208 () Bool)
(declare-fun x73 () x87)
(declare-fun x286 () Bool)
(declare-fun x119 () Bool)
(declare-fun x172 () x91)
(declare-fun x121 () x91)
(declare-fun x277 () Bool)
(declare-fun x171 () Bool)
(declare-fun x284 () Bool)
(declare-fun x227 () x87)
(declare-fun x589 () Bool)
(declare-fun x254 () Bool)
(declare-fun x18 () Bool)
(declare-fun x169 () x87)
(declare-fun x107 () Bool)
(declare-fun x412 () Bool)
(declare-fun x379 () Bool)
(declare-fun x366 () Bool)
(declare-fun x242 () Bool)
(declare-fun x90 () Bool)
(declare-fun x74 () x623)
(declare-fun x344 () Bool)
(declare-fun x523 () Bool)
(declare-fun x445 () Bool)
(declare-fun x491 () Bool)
(declare-fun x23 () Bool)
(declare-fun x438 () Bool)
(declare-fun x519 () x87)
(declare-fun x609 () x87)
(declare-fun x225 () Bool)
(declare-fun x162 () Bool)
(declare-fun x318 () Bool)
(declare-fun x592 () x87)
(declare-fun x97 () x87)
(declare-fun x475 () Bool)
(declare-fun x461 () Bool)
(declare-fun x608 () Bool)
(declare-fun x410 () x87)
(declare-fun x253 () x87)
(declare-fun x49 () Bool)
(declare-fun x201 () Bool)
(declare-fun x541 () x87)
(declare-fun x516 () Bool)
(declare-fun x30 () x623)
(declare-fun x153 () x91)
(declare-fun x596 () Bool)
(declare-fun x559 () Bool)
(declare-fun x351 () Bool)
(declare-fun x252 () Bool)
(declare-fun x245 () Bool)
(declare-fun x376 () Bool)
(declare-fun x346 () Bool)
(declare-fun x503 () x87)
(declare-fun x514 () Bool)
(declare-fun x221 () Bool)
(declare-fun x33 () Bool)
(declare-fun x32 (Bool x314) x91)
(declare-fun x602 () Bool)
(declare-fun x70 () Bool)
(declare-fun x386 () x87)
(declare-fun x59 () Bool)
(declare-fun x385 () Bool)
(declare-fun x463 () x87)
(declare-fun x189 () Bool)
(declare-fun x329 () x87)
(declare-fun x411 () x87)
(declare-fun x317 () Bool)
(declare-fun x423 () x87)
(declare-fun x136 () x91)
(declare-fun x450 () Bool)
(declare-fun x197 () x623)
(declare-fun x405 () x623)
(declare-fun x406 () x87)
(declare-fun x19 () x87)
(declare-fun x244 () Bool)
(declare-fun x474 () x623)
(declare-fun x159 () x87)
(declare-fun x65 () x87)
(declare-fun x63 () x87)
(declare-fun x614 () x87)
(declare-fun x260 () Bool)
(declare-fun x223 () Bool)
(declare-fun x230 () Bool)
(declare-fun x470 () x87)
(declare-fun x100 () x87)
(declare-fun x582 () Bool)
(declare-fun x293 () Bool)
(declare-fun x456 () Bool)
(declare-fun x285 () Bool)
(declare-fun x25 () Bool)
(declare-fun x279 () Bool)
(declare-fun x80 () Bool)
(declare-fun x194 () Bool)
(declare-fun x331 () Bool)
(declare-fun x214 () Bool)
(declare-fun x66 () x87)
(declare-fun x322 () Bool)
(declare-fun x239 () x87)
(declare-fun x436 () Bool)
(declare-fun x123 (x87) Bool)
(declare-fun x447 () Bool)
(declare-fun x301 () Bool)
(declare-fun x377 () x87)
(declare-fun x396 () Bool)
(declare-fun x190 () Bool)
(declare-fun x448 () Bool)
(declare-fun x536 (x91) x87)
(declare-fun x257 () Bool)
(declare-fun x88 () x87)
(declare-fun x349 (Bool Bool Bool Bool) x87)
(declare-fun x383 () Bool)
(declare-fun x426 () x87)
(declare-fun x186 () Bool)
(declare-fun x319 () x87)
(declare-fun x512 () Bool)
(declare-fun x625 () Bool)
(declare-fun x544 () Bool)
(declare-fun x92 () x87)
(declare-fun x141 () Bool)
(declare-fun x587 () Bool)
(declare-fun x193 () Bool)
(declare-fun x60 () Bool)
(declare-fun x408 () x87)
(declare-fun x509 () x87)
(declare-fun x452 () Bool)
(declare-fun x590 () Bool)
(declare-fun x508 () Bool)
(declare-fun x481 () Bool)
(declare-fun x358 () Bool)
(declare-fun x289 () Bool)
(declare-fun x154 () Bool)
(declare-fun x320 () Bool)
(declare-fun x524 () x87)
(declare-fun x281 () Bool)
(declare-fun x21 () x623)
(declare-fun x583 () Bool)
(declare-fun x517 () x87)
(declare-fun x422 () Bool)
(declare-fun x287 () Bool)
(declare-fun x35 () Bool)
(declare-fun x327 () Bool)
(declare-fun x297 () Bool)
(declare-fun x108 () Bool)
(declare-fun x232 () Bool)
(declare-fun x472 () Bool)
(declare-fun x394 () x623)
(declare-fun x231 () x87)
(declare-fun x378 () x87)
(declare-fun x240 () Bool)
(declare-fun x392 () Bool)
(declare-fun x343 (x87) Bool)
(declare-fun x132 () Bool)
(declare-fun x71 () Bool)
(declare-fun x16 (x91 x91) x91)
(declare-fun x566 () Bool)
(declare-fun x460 () Bool)
(declare-fun x604 () x87)
(declare-fun x174 () Bool)
(declare-fun x380 () x87)
(declare-fun x238 () Bool)
(declare-fun x191 () x87)
(declare-fun x140 () Bool)
(declare-fun x573 () Bool)
(declare-fun x77 () Bool)
(declare-fun x311 () x91)
(declare-fun x243 () Bool)
(declare-fun x520 () Bool)
(declare-fun x246 () Bool)
(declare-fun x295 () x434)
(declare-fun x571 () Bool)
(declare-fun x104 () Bool)
(declare-fun x549 () x87)
(declare-fun x294 () x87)
(declare-fun x155 () x623)
(declare-fun x217 () Bool)
(declare-fun x554 () Bool)
(declare-fun x275 () Bool)
(declare-fun x151 () Bool)
(declare-fun x624 () x623)
(declare-fun x345 () Bool)
(declare-fun x352 () x87)
(declare-fun x82 () Bool)
(declare-fun x163 () Bool)
(declare-fun x58 () Bool)
(declare-fun x120 () Bool)
(declare-fun x112 () x87)
(declare-fun x348 () x87)
(declare-fun x102 () Bool)
(declare-fun x626 () Bool)
(declare-fun x106 () Bool)
(declare-fun x371 () Bool)
(declare-fun x14 () Bool)
(declare-fun x52 () Bool)
(declare-fun x338 () x87)
(declare-fun x83 () x87)
(declare-fun x409 () Bool)
(declare-fun x543 () Bool)
(declare-fun x555 () Bool)
(declare-fun x425 () Bool)
(declare-fun x363 () x87)
(declare-fun x457 () Bool)
(declare-fun x50 () x87)
(declare-fun x57 () Bool)
(declare-fun x552 () Bool)
(declare-fun x234 () x87)
(declare-fun x530 () Bool)
(declare-fun x476 () Bool)
(declare-fun x482 () Bool)
(declare-fun x137 () Bool)
(declare-fun x567 () x623)
(declare-fun x118 () x87)
(declare-fun x432 () Bool)
(declare-fun x347 () Bool)
(declare-fun x218 () Bool)
(declare-fun x353 () Bool)
(declare-fun x572 () x623)
(declare-fun x595 () x87)
(declare-fun x621 () Bool)
(declare-fun x477 (x623) Bool)
(declare-fun x326 () Bool)
(declare-fun x149 () Bool)
(declare-fun x357 () Bool)
(declare-fun x41 () Bool)
(declare-fun x36 () Bool)
(declare-fun x288 () Bool)
(declare-fun x69 () x87)
(declare-fun x492 () x87)
(declare-fun x464 () Bool)
(declare-fun x259 () Bool)
(declare-fun x45 () Bool)
(declare-fun x414 () Bool)
(declare-fun x557 () x87)
(declare-fun x6 () Bool)
(declare-fun x610 () Bool)
(declare-fun x330 () Bool)
(declare-fun x308 () Bool)
(declare-fun x94 () x87)
(declare-fun x598 () Bool)
(declare-fun x203 () x87)
(declare-fun x607 () Bool)
(declare-fun x160 () x87)
(declare-fun x370 () x87)
(declare-fun x630 () x87)
(declare-fun x373 () x91)
(declare-fun x158 () Bool)
(declare-fun x375 () x87)
(declare-fun x418 () Bool)
(declare-fun x44 () x87)
(declare-fun x114 () Bool)
(declare-fun x493 () x87)
(declare-fun x416 () Bool)
(declare-fun x130 () x91)
(declare-fun x471 () x91)
(declare-fun x184 () Bool)
(declare-fun x591 () Bool)
(declare-fun x593 () x87)
(declare-fun x467 () Bool)
(declare-fun x274 () Bool)
(declare-fun x204 () x87)
(declare-fun x562 () Bool)
(declare-fun x185 () Bool)
(declare-fun x489 () Bool)
(declare-fun x579 () Bool)
(declare-fun x168 () Bool)
(declare-fun x307 () Bool)
(declare-fun x215 () Bool)
(declare-fun x180 () Bool)
(declare-fun x54 () x87)
(declare-fun x199 () Bool)
(declare-fun x125 () Bool)
(declare-fun x585 () Bool)
(declare-fun x165 () x87)
(declare-fun x328 () x87)
(declare-fun x401 () x87)
(declare-fun x611 () x87)
(declare-fun x526 () Bool)
(declare-fun x134 () Bool)
(declare-fun x407 () x87)
(declare-fun x486 () x87)
(declare-fun x313 () Bool)
(declare-fun x164 () Bool)
(declare-fun x105 () x87)
(declare-fun x616 () Bool)
(declare-fun x507 () Bool)
(declare-fun x542 () Bool)
(declare-fun x480 () Bool)
(declare-fun x220 () Bool)
(declare-fun x545 () Bool)
(declare-fun x527 () Bool)
(declare-fun x324 () Bool)
(declare-fun x247 () x91)
(declare-fun x302 () Bool)
(declare-fun x305 () x623)
(declare-fun x200 () Bool)
(declare-fun x262 () x623)
(declare-fun x38 () x87)
(declare-fun x249 () Bool)
(declare-fun x127 () x91)
(declare-fun x213 () Bool)
(declare-fun x212 () Bool)
(declare-fun x483 () Bool)
(declare-fun x315 (x623) Bool)
(declare-fun x85 () Bool)
(declare-fun x513 () Bool)
(declare-fun x135 () Bool)
(declare-fun x304 (x623) Bool)
(declare-fun x278 () x87)
(declare-fun x316 () Bool)
(declare-fun x578 () x87)
(declare-fun x116 (x87 x434) x91)
(declare-fun x574 () Bool)
(declare-fun x157 () x87)
(declare-fun x374 () Bool)
(declare-fun x539 () Bool)
(declare-fun x506 () Bool)
(declare-fun x291 () x87)
(declare-fun x96 () Bool)
(declare-fun x271 () Bool)
(declare-fun x462 () Bool)
(declare-fun x451 () Bool)
(declare-fun x258 () x87)
(declare-fun x569 () x623)
(declare-fun x449 () Bool)
(declare-fun x64 () x87)
(declare-fun x446 () Bool)
(declare-fun x455 () Bool)
(declare-fun x356 () x87)
(declare-fun x546 () Bool)
(declare-fun x387 () Bool)
(declare-fun x384 () x91)
(declare-fun x276 () x87)
(declare-fun x12 () Bool)
(declare-fun x437 () Bool)
(declare-fun x431 () Bool)
(declare-fun x442 () Bool)
(declare-fun x522 () Bool)
(declare-fun x84 () Bool)
(declare-fun x584 () Bool)
(declare-fun x532 () Bool)
(declare-fun x300 () Bool)
(declare-fun x26 () Bool)
(declare-fun x68 () Bool)
(declare-fun x22 () x87)
(declare-fun x597 () Bool)
(declare-fun x268 () Bool)
(declare-fun x55 () Bool)
(declare-fun x233 () Bool)
(declare-fun x42 () x91)
(declare-fun x468 () Bool)
(declare-fun x333 () Bool)
(declare-fun x9 () Bool)
(declare-fun x40 () x87)
(declare-fun x48 () x87)
(declare-fun x553 () Bool)
(declare-fun x581 () Bool)
(declare-fun x459 () Bool)
(declare-fun x500 () Bool)
(declare-fun x615 () Bool)
(declare-fun x95 () Bool)
(declare-fun x428 () Bool)
(declare-fun x273 () x87)
(declare-fun x568 () x87)
(declare-fun x34 () Bool)
(declare-fun x144 () Bool)
(declare-fun x510 () x91)
(declare-fun x156 () x87)
(declare-fun x613 () x87)
(declare-fun x496 () x87)
(declare-fun x499 () x87)
(declare-fun x126 () Bool)
(declare-fun x393 () Bool)
(declare-fun x599 () Bool)
(declare-fun x237 () x623)
(declare-fun x603 () Bool)
(declare-fun x229 () Bool)
(declare-fun x62 () Bool)
(declare-fun x359 () Bool)
(declare-fun x29 () x87)
(declare-fun x176 () x623)
(declare-fun x478 () Bool)
(declare-fun x601 () Bool)
(declare-fun x27 () Bool)
(declare-fun x473 () Bool)
(declare-fun x441 () Bool)
(declare-fun x575 () Bool)
(declare-fun x166 () Bool)
(declare-fun x139 () Bool)
(declare-fun x28 () Bool)
(declare-fun x148 () Bool)
(declare-fun x109 () x87)
(declare-fun x143 () Bool)
(declare-fun x600 (x87) Bool)
(declare-fun x138 () x91)
(declare-fun x216 () x87)
(declare-fun x443 () Bool)
(declare-fun x556 () Bool)
(declare-fun x404 () Bool)
(declare-fun x629 () Bool)
(declare-fun x321 () x87)
(declare-fun x518 () Bool)
(declare-fun x336 () Bool)
(declare-fun x24 () Bool)
(declare-fun x364 () Bool)
(declare-fun x341 () Bool)
(declare-fun x192 () Bool)
(declare-fun x498 () Bool)
(declare-fun x525 () Bool)
(declare-fun x430 () Bool)
(declare-fun x444 () Bool)
(declare-fun x535 () Bool)
(declare-fun x161 () Bool)
(declare-fun x534 () x91)
(declare-fun x400 () Bool)
(declare-fun x413 () Bool)
(declare-fun x210 () Bool)
(declare-fun x86 () Bool)
(declare-fun x261 () Bool)
(declare-fun x495 () x87)
(declare-fun x182 () x87)
(declare-fun x226 () Bool)
(declare-fun x81 () Bool)
(declare-fun x622 () x623)
(declare-fun x435 () Bool)
(declare-fun x256 () x87)
(declare-fun x310 () Bool)
(declare-fun x146 () Bool)
(declare-fun x627 () Bool)
(declare-fun x37 () x87)
(declare-fun x421 () Bool)
(declare-fun x241 () Bool)
(declare-fun x399 () Bool)
(declare-fun x113 () Bool)
(declare-fun x179 () x87)
(declare-fun x619 () Bool)
(declare-fun x565 () x91)
(declare-fun x479 () Bool)
(declare-fun x395 () x87)
(declare-fun x296 () Bool)
(declare-fun x17 () Bool)
(declare-fun x398 () x87)
(declare-fun x181 () x87)
(declare-fun x502 () Bool)
(declare-fun x490 () Bool)
(declare-fun x505 () Bool)
(declare-fun x488 () Bool)
(declare-fun x339 () Bool)
(declare-fun x76 (x87) Bool)
(declare-fun x133 () Bool)
(declare-fun x202 () Bool)
(declare-fun x588 () x87)
(declare-fun x56 () x87)
(declare-fun x235 () Bool)
(declare-fun x564 () Bool)
(declare-fun x538 () Bool)
(declare-fun x78 () Bool)
(declare-fun x47 () x87)
(declare-fun x560 () x87)
(declare-fun x99 () Bool)
(declare-fun x550 () x87)
(declare-fun x150 () x87)
(declare-fun x439 () Bool)
(declare-fun x196 () Bool)
(declare-fun x299 () Bool)
(declare-fun x1 () Bool)
(declare-fun x466 () Bool)
(declare-fun x531 () Bool)
(declare-fun x620 () Bool)
(declare-fun x403 () Bool)
(declare-fun x487 () Bool)
(declare-fun x303 () Bool)
(declare-fun x129 () x87)
(declare-fun x211 () Bool)
(declare-fun x53 () x87)
(declare-fun x533 () x87)
(declare-fun x11 () Bool)
(declare-fun x67 () Bool)
(declare-fun x312 () x91)
(declare-fun x10 () Bool)
(declare-fun x207 () Bool)
(declare-fun x183 () Bool)
(declare-fun x440 () x91)
(declare-fun x5 () x87)
(declare-fun x350 () Bool)
(declare-fun x250 () Bool)
(declare-fun x219 () x87)
(declare-fun x222 () Bool)
(declare-fun x537 () x623)
(declare-fun x628 () x87)
(declare-fun x484 () x87)
(declare-fun x389 () Bool)
(declare-fun x469 () Bool)
(declare-fun x205 () Bool)
(declare-fun x497 () Bool)
(declare-fun x323 () Bool)
(declare-fun x39 () Bool)
(declare-fun x188 () Bool)
(declare-fun x504 () Bool)
(declare-fun x298 () Bool)
(declare-fun x111 (x91 x91) x91)
(declare-fun x454 () Bool)
(declare-fun x98 () Bool)
(declare-fun x334 () x87)
(declare-fun x152 () x87)
(declare-fun x20 () x87)
(declare-fun x283 () Bool)
(declare-fun x187 () Bool)
(declare-fun x290 (x91) x623)
(declare-fun x391 () Bool)
(declare-fun x8 () Bool)
(declare-fun x15 () Bool)
(declare-fun x540 () Bool)
(declare-fun x368 () Bool)
(declare-fun x264 () Bool)
(declare-fun x124 () Bool)
(declare-fun x548 (x87) x623)
(declare-fun x170 () Bool)
(declare-fun x306 () x87)
(declare-fun x251 () Bool)
(declare-fun x605 () Bool)
(declare-fun x31 () Bool)
(declare-fun x147 () Bool)
(declare-fun x282 () x87)
(declare-fun x612 () Bool)
(declare-fun x420 () x91)
(declare-fun x248 () Bool)
(declare-fun x594 () Bool)
(declare-fun x224 () Bool)
(declare-fun x89 () Bool)
(declare-fun x255 () Bool)
(declare-fun x381 () Bool)
(declare-fun x267 () x87)
(declare-fun x563 () Bool)
(declare-fun x433 () Bool)
(declare-fun x570 () Bool)
(declare-fun x46 () x87)
(declare-fun x529 () Bool)
(declare-fun x337 () Bool)
(declare-fun x577 () Bool)
(declare-fun x272 () Bool)
(declare-fun x586 () Bool)
(declare-fun x415 () x87)
(declare-fun x419 () Bool)
(declare-fun x617 () Bool)
(declare-fun x93 () x87)
(declare-fun x397 () Bool)
(declare-fun x175 () Bool)
(declare-fun x195 () Bool)
(declare-fun x501 () Bool)
(declare-fun x342 () x87)
(declare-fun x309 () Bool)
(declare-fun x382 () Bool)
(declare-fun x263 () Bool)
(declare-fun x265 () Bool)
(declare-fun x362 () x87)
(declare-fun x429 () x91)
(declare-fun x79 () Bool)
(declare-fun x551 () x87)
(declare-fun x236 () Bool)
(declare-fun x110 () Bool)
(declare-fun x369 () Bool)
(declare-fun x128 () Bool)
(declare-fun x417 () x87)
(declare-fun x427 () Bool)
(declare-fun x2 () Bool)
(declare-fun x178 () Bool)
(declare-fun x580 () x87)
(declare-fun x361 () Bool)
(declare-fun x365 () Bool)
(declare-fun x458 () Bool)
(declare-fun x131 () Bool)
(declare-fun x209 () x91)
(declare-fun x13 () Bool)
(declare-fun x280 () x87)
(declare-fun x198 () x91)
(declare-fun x61 () Bool)
(declare-fun x332 () Bool)
(declare-fun x453 () x87)
(declare-fun x561 () Bool)
(declare-fun x75 () x87)
(declare-fun x606 () Bool)
(declare-fun x465 () Bool)
(declare-fun x340 () x87)
(declare-fun x515 () Bool)
(declare-fun x360 () x87)
(declare-fun x372 () Bool)
(declare-fun x388 () Bool)
(assert (= (and x535 x511) x332))
(assert (= x452 x535))
(assert (= (not x439) x376))
(assert (= (x600 x402) x299))
(assert (= x593 (x349 x90 x626 x52 x235)))
(assert (= (not x318) x444))
(assert (= x169 (ite x283 x48 x334)))
(assert (= (ite x214 x378 x159) x550))
(assert (= x312 (x111 x384 x247)))
(assert (= x170 x433))
(assert (= (x600 x604) x535))
(assert (= (and x186 x8) x298))
(assert (= x452 x186))
(assert (= (ite x245 x266 x398) x56))
(assert (= x621 (not x585)))
(assert (= (= x567 x569) x23))
(assert (= (not x135) x457))
(assert (= x170 (not x403)))
(assert (= x264 x413))
(assert (= (ite x283 x64 x329) x319))
(assert (= x316 x298))
(assert (= (x343 x609) x264))
(assert (= (ite x174 x578 x22) x88))
(assert (= x545 (and x260 x245)))
(assert (= x8 (x123 x46)))
(assert (= (x349 x364 x271 x601 x442) x118))
(assert (= x498 (and x1 x387)))
(assert (= (or x482 x23) x214))
(assert (= x606 (= x262 x567)))
(assert (= x73 (ite x174 x83 x495)))
(assert (= x316 (not x412)))
(assert (= x192 (x76 x533)))
(assert (= x65 (ite x607 x253 x411)))
(assert (= (x600 x533) x17))
(assert (= x452 x1))
(assert (= (not x151) x582))
(assert (= x519 (ite x58 x354 x169)))
(assert (= x584 (and x248 x318)))
(assert (= (ite x174 x253 x576) x560))
(assert (= (not x564) x39))
(assert (= (not (= x127 x247)) x190))
(assert (= (ite x186 x474 x21) x572))
(assert (= (ite x270 x338 x519) x611))
(assert (= x127 (x32 x587 x390)))
(assert (= x156 (ite x606 x152 x386)))
(assert (= (and x200 x584) x488))
(assert (= (and x387 x535) x268))
(assert (= (ite x265 x423 x470) x551))
(assert (= (and x361 x61) x527))
(assert (= x90 (ite x512 x285 x552)))
(assert (= (and x188 x447) x404))
(assert (= (x76 x181) x336))
(assert (= (and x469 x178 x261 x457) x275))
(assert (= (x349 x485 x389 x28 x483) x66))
(assert (= x67 x573))
(assert (= x459 x323))
(assert (= (ite x491 x285 x242) x364))
(assert (= x137 x192))
(assert (= (and x211 x164) x582))
(assert (= (x123 x609) x78))
(assert (distinct x440 x247 x136))
(assert (= x49 (not x596)))
(assert (= x491 (and x202 x1)))
(assert (= x436 (= x44 x578)))
(assert (= x67 (not x24)))
(assert (= x389 (ite x143 x376 x324)))
(assert (= x236 (not x556)))
(assert (= (and x135 x476) x444))
(assert (= (and x141 x422) x287))
(assert (= x14 (and x186 x357)))
(assert (= (= x321 x29) x629))
(assert (= x180 (and x581 x436 x98 x10 x85 x292 x151 x589 x358 x230 x490 x199 x575 x222 x9 x451 x619 x207 x288 x108 x585 x154 x514 x206)))
(assert (= x345 (= x294 x628)))
(assert (= (ite x174 x578 x362) x495))
(assert (= x273 (ite x584 x181 x578)))
(assert (= x288 (not x245)))
(assert (= (= x457 x612) x177))
(assert (= x52 (ite x233 x192 x385)))
(assert (= (= x578 x410) x292))
(assert (= x154 (= x19 x578)))
(assert (= (= x262 x394) x322))
(assert (= (and (not x186) x522) x612))
(assert (= x359 (x76 x227)))
(assert (= (= x54 x181) x476))
(assert (= x35 (= x136 x510)))
(assert (= (x600 x48) x246))
(assert (= (x548 x129) x405))
(assert (= x424 (or x575 x168)))
(assert (= (not x531) x126))
(assert (= (x600 x408) x446))
(assert (= x261 (not (= x471 x136))))
(assert (= x195 (and x300 x1)))
(assert (= x382 x126))
(assert (= x409 (not x230)))
(assert (= (= x578 x576) x619))
(assert (= (not x447) x67))
(assert (= x233 (and x511 x428)))
(assert (= x490 (= x398 x578)))
(assert (= (= x510 x440) x243))
(assert (= x145 (x76 x19)))
(assert (= x186 (and x455 x556)))
(assert (= (and x226 x186) x137))
(assert (= (= x247 x172) x113))
(assert (= x449 (= x375 x53)))
(assert (= (x536 x565) x266))
(assert (= x159 (ite x392 x576 x65)))
(assert (= (ite x268 x17 x308) x163))
(assert (= (and x264 x404) x511))
(assert (= (and (not x186) x81) x522))
(assert (= (and x428 x286) x99))
(assert (= (ite x243 x398 x37) x142))
(assert (= (not x188) x78))
(assert (= (x343 x273) x49))
(assert (= (not x358) x275))
(assert (= x452 x428))
(assert (= (x76 x402) x435))
(assert (= x263 (and x286 x1)))
(assert (= x209 (x116 x410 x295)))
(assert (= x362 (ite x545 x88 x398)))
(assert (= (x290 x312) x197))
(assert (= (x536 x312) x75))
(assert (= x9 (and x449 x590 x475 x177 x345 x396 x547 x629 x571 x526 x26 x597 x301 x399 x579 x7)))
(assert (= x414 (and x72 x596)))
(assert (= x168 (= x410 x75)))
(assert (= (ite x498 x285 x175) x77))
(assert (= x200 (x123 x181)))
(assert (= x224 (ite x212 x17 x445)))
(assert (= x342 (ite x530 x92 x628)))
(assert (= x49 x432))
(assert (= (not (= x66 x595)) x478))
(assert (= x485 (ite x25 x610 x454)))
(assert (= (ite x416 x316 x460) x355))
(assert (= x376 x591))
(assert (= (ite x23 x528 x453) x378))
(assert (= x433 (and x15 x584)))
(assert (= x521 (or x288 x243)))
(assert (= (x76 x329) x125))
(assert (= (ite x186 x578 x325) x496))
(assert (= x278 (ite x251 x53 x321)))
(assert (= x565 (x111 x510 x247)))
(assert (= x81 (ite x272 x281 x575)))
(assert (= x459 x584))
(assert (= (x548 x398) x569))
(assert (= (x343 x46) x357))
(assert (= x104 (or x606 x322)))
(assert (= (x76 x408) x487))
(assert (= x175 (x343 x19)))
(assert (= x257 (x600 x334)))
(assert (= x604 (ite x186 x613 x578)))
(assert (= x308 (x600 x19)))
(assert (= x341 x459))
(assert (= (x123 x19) x149))
(assert (= (x123 x227) x376))
(assert (= (ite x545 x142 x578) x22))
(assert (= x508 (x600 x282)))
(assert (= (x349 x77 x303 x388 x163) x294))
(assert (= (and x584 x33) x432))
(assert (= x34 (and x505 x511)))
(assert (= x7 (= x568 x181)))
(assert (= x542 (and x447 x78)))
(assert (= x413 (and x186 x167)))
(assert (= x285 (x343 x533)))
(assert (= (= x152 x417) x26))
(assert (= x78 x51))
(assert (= (and x366 x186) x51))
(assert (= x217 (and x300 x535)))
(assert (= x514 (= x578 x334)))
(assert (= (ite x559 x316 x149) x303))
(assert (= (and x535 x286) x212))
(assert (= x211 (= x136 x471)))
(assert (= x505 x452))
(assert (= x415 (ite x265 x342 x524)))
(assert (= (ite x217 x17 x257) x467))
(assert (= x526 (= x560 x494)))
(assert (= x39 (x123 x273)))
(assert (= (and x584 x336) x382))
(assert (= (x315 x155) x283))
(assert (= x14 x285))
(assert (= (x343 x227) x610))
(assert (= x141 (= x288 x575)))
(assert (= (and x190 x575 x41 x288) x238))
(assert (= (and x134 x404) x300))
(assert (= x119 (and x446 x414)))
(assert (= (and (not x186) x346) x281))
(assert (= (ite x104 x156 x406) x93))
(assert (= x530 (x315 x537)))
(assert (= x143 (and x341 x414)))
(assert (= (= x129 x54) x571))
(assert (= (= x44 x410) x501))
(assert (= (= x211 x444) x293))
(assert (= x67 (x76 x609)))
(assert (= (= x93 x484) x71))
(assert (= x506 (ite x195 x285 x82)))
(assert (= (and x202 x428) x369))
(assert (= x367 (ite x545 x544 x288)))
(assert (= (and x431 x260) x272))
(assert (= x29 (ite x174 x46 x411)))
(assert (= (not (= x172 x247)) x178))
(assert (= (x123 x48) x240))
(assert (= (= x92 x118) x475))
(assert (= (x600 x227) x170))
(assert (= (x16 x510 x247) x420))
(assert (distinct x578 x216 x613))
(assert (= x196 (and x525 (not x174))))
(assert (= (not x241) x39))
(assert (= x473 (x600 x46)))
(assert (= x207 (= x578 x329)))
(assert (= x470 (ite x530 x122 x103)))
(assert (= x62 (and x584 x520)))
(assert (= x359 (not x110)))
(assert (= x251 (= x305 x262)))
(assert (= x568 (ite x186 x276 x410)))
(assert (= (x123 x329) x460))
(assert (= x58 (x304 x155)))
(assert (= x346 (and x272 x424)))
(assert (= x338 (ite x58 x549 x319)))
(assert (= (ite x34 x316 x240) x626))
(assert (= x353 (not x589)))
(assert (= x575 (not x431)))
(assert (= (ite x263 x285 x532) x107))
(assert (= (x116 x398 x295) x510))
(assert (= x285 (not x89)))
(assert (= (x343 x402) x242))
(assert (= (and (not x174) x489) x544))
(assert (= x235 (ite x332 x17 x246)))
(assert (= x597 (= x103 x592)))
(assert (= (not x86) x49))
(assert (= (= x236 x35) x422))
(assert (= (x548 x44) x474))
(assert (= x126 (not x225)))
(assert (= (ite x337 x551 x415) x484))
(assert (= (ite x186 x46 x578) x533))
(assert (= (ite x174 x453 x528) x417))
(assert (= (ite x174 x411 x253) x375))
(assert (= (x343 x20) x284))
(assert (= (ite x6 x359 x289) x28))
(assert (= x265 (x304 x537)))
(assert (= x353 (and x490 x35)))
(assert (= (or x288 x574) x583))
(assert (= x540 (and x505 x490 x412 x24 x598 x89 x140 x59 x468 x464)))
(assert (= (= x528 x578) x222))
(assert (= x236 (and x501 x431)))
(assert (= x61 (or x71 x469)))
(assert (= (and x367 (not x174)) x525))
(assert (= x524 (ite x530 x614 x282)))
(assert (= x483 (ite x119 x170 x508)))
(assert (= x451 (= x402 x578)))
(assert (= x520 (x76 x20)))
(assert (= x480 (ite x99 x192 x125)))
(assert (= (and x473 x186) x27))
(assert (= (ite x174 x56 x578) x83))
(assert (= (and x67 x188) x448))
(assert (= x289 (x76 x282)))
(assert (= x387 (and x542 x134)))
(assert (= x618 (ite x419 x192 x371)))
(assert (= (x477 x155) x270))
(assert (= (and x186 x350) x573))
(assert (= (= x593 x614) x579))
(assert (= (ite x369 x192 x435) x601))
(assert (= x446 x459))
(assert (= x552 (x343 x48)))
(assert (= (and x241 x225) x72))
(assert (= (x343 x282) x454))
(assert (= x10 (= x253 x578)))
(assert (= (and x264 x542) x202))
(assert (= x388 (ite x255 x192 x145)))
(assert (= (and x323 x414) x25))
(assert x180)
(assert (= (= x48 x578) x98))
(assert (= (not x140) x264))
(assert (= (ite x620 x316 x2) x271))
(assert (= x1 (x343 x604)))
(assert (= (x116 x595 x295) x471))
(assert (= x443 x610))
(assert (= x587 (and x583 x287)))
(assert (= (and x505 x202) x620))
(assert (= x172 (x32 x527 x390)))
(assert (= x445 (x600 x329)))
(assert (= (not x274) x610))
(assert (= (= x457 x469) x55))
(assert (= x354 (ite x283 x402 x19)))
(assert (= (not x581) x540))
(assert (= (and x286 x505) x416))
(assert (= x487 x459))
(assert (= (ite x584 x613 x578) x408))
(assert (= x572 x405))
(assert (= x442 (ite x465 x17 x299)))
(assert (= (x123 x402) x2))
(assert (= x108 (= x411 x578)))
(assert (= x399 (= x405 x537)))
(assert (= x192 (not x59)))
(assert (= (= x469 x196) x301))
(assert (= (and x403 x341 x478 x164 x531 x439 x86 x274 x564 x110) x621))
(assert (= x15 (x600 x20)))
(assert (= (x76 x334) x371))
(assert (= (not (= x136 x510)) x41))
(assert (= (and x55 x293) x361))
(assert (= x33 (x343 x181)))
(assert (= x78 (not x598)))
(assert (= x199 (= x113 x409)))
(assert (= x554 (ite x461 x316 x523)))
(assert (= x323 (x343 x408)))
(assert (= (ite x530 x486 x165) x423))
(assert (= x532 (x343 x329)))
(assert (= x129 (ite x186 x44 x496)))
(assert (= x488 x39))
(assert (= (= x595 x578) x164))
(assert (= x549 (ite x283 x580 x97)))
(assert (= x264 (not x134)))
(assert (= x316 (x123 x533)))
(assert (= (x123 x334) x523))
(assert (= (= x258 x386) x590))
(assert (= (and x505 x300) x461))
(assert (= (ite x584 x20 x578) x227))
(assert (= (and x41 x455) x174))
(assert (= x350 (x76 x410)))
(assert (= x62 x359))
(assert (= x547 (= x282 x348)))
(assert (= x465 (and x535 x202)))
(assert (= (and x555 x584) x591))
(assert (= (and x284 x584) x443))
(assert (= x366 (x123 x410)))
(assert (= x82 (x343 x334)))
(assert (= x464 (not (= x398 x348))))
(assert (= x276 (x536 x373)))
(assert (= (x123 x20) x555))
(assert (= x419 (and x428 x300)))
(assert (= x167 (x343 x410)))
(assert (= x258 (ite x174 x576 x453)))
(assert (= (not x468) x17))
(assert (= x262 (x548 x595)))
(assert (= (x76 x604) x428))
(assert (= x37 (x536 x420)))
(assert (= (x477 x537) x337))
(assert (= (and x545 x521) x489))
(assert (= (ite x272 x197 x474) x74))
(assert (= x384 (x116 x44 x295)))
(assert (= (x111 x209 x247) x373))
(assert (= x607 (= x305 x569)))
(assert (= x325 (ite x272 x75 x44)))
(assert (= x255 (and x387 x428)))
(assert (= (and x505 x387) x559))
(assert (= (x123 x604) x505))
(assert (= x226 (x76 x46)))
(assert (= (= x73 x595) x396))
(assert (= x6 (and x414 x487)))
(assert (distinct x624 x567 x305 x394 x237))
(assert (= (= x237 x262) x344))
(assert (= x27 x17))
(assert (= x21 (ite x186 x624 x74)))
(assert (= x406 (ite x344 x494 x278)))
(assert (= x348 (x349 x506 x554 x618 x467)))
(assert (= (x76 x48) x385))
(assert (= x324 (x123 x282)))
(assert (= x392 (= x569 x237)))
(assert (= (x76 x273) x126))
(assert (= (x349 x107 x355 x480 x224) x592))
(assert (= (= x569 x394) x482))
(assert (= (= x453 x578) x85))
(assert (= x286 (and x134 x448)))
(assert (= x238 (not x206)))
(assert (= (and x1 x511) x512))
(assert (= (x123 x408) x341))
(assert (= x609 (ite x186 x410 x578)))
(assert (= x574 (= x611 x550)))
(check-sat)
(get-model)
(exit)
